p cnf 19 56
-2 -3 -10 0
-2 3 10 0
2 3 -10 0
2 -3 10 0
-3 -4 5 9 0
-3 5 8 9 0
-3 -4 8 9 0
3 4 -5 0
3 -5 -8 0
3 -9 0
3 4 -8 0
-4 17 18 0
4 -17 0
4 -18 0
5 -14 15 0
5 -15 6 0
5 -13 15 0
-5 -15 -6 0
-5 13 14 15 0
-6 -17 18 0
-6 17 7 0
6 -17 -18 0
6 17 -7 0
-7 15 16 0
7 -15 0
7 -16 0
-8 16 18 0
-8 15 -16 -18 0
-8 15 17 0
-8 -15 16 0
8 -15 -16 0
8 -16 -17 18 0
8 15 16 -17 -18 0
9 17 -18 7 0
9 -17 -18 -7 0
-9 18 0
-9 -17 7 0
-9 17 -7 0
10 -15 11 0
10 11 -12 0
10 -13 11 0
-10 -11 0
-10 13 15 12 0
11 -15 16 17 0
11 16 -17 18 0
11 -16 17 -18 0
-11 -16 18 0
-11 -17 -18 0
-11 15 16 17 0
-12 14 18 0
-12 14 16 -17 0
12 -14 0
12 -16 -18 0
12 17 -18 0
-19 0
2 0
